sat
(:max-memory         18.52
 :memory             18.32
 :nlsat-arith-var    3
 :nlsat-atoms        24
 :nlsat-bool-var     4
 :nlsat-clauses      9
 :nlsat-conflicts    4
 :nlsat-decisions    1
 :nlsat-propagations 32
 :nlsat-stages       8
 :num-allocs         102747
 :rlimit-count       24314
 :time               0.02
 :total-time         0.03)
